85
410
275
316
89
465
460
104
297
166
167
242
348
194
75
64
153
435
78
86
327
167
437
217
483
486
69
28
65
342
133
156
110
2
55
358
272
206
374
366
107
449
135
76
462
264
243
312
340
366
401
202
24
72
492
439
36
454
305
71
165
68
434
70
323
213
197
27
214
177
444
50
184
157
350
23
250
387
235
451
36
364
1
362
336
68
460
